p cnf 20 20
17 13 -2 0
-12 -20 -9 0
-18 -1 -16 0
19 -11 -13 0
-20 -11 -8 0
-12 -11 -15 0
2 10 1 0
-20 19 11 0
-7 16 -10 0
-6 -3 8 0
9 18 14 0
9 -17 4 0
-9 -5 -4 0
-5 -7 -18 0
15 11 -17 0
-14 6 13 0
-7 4 3 0
18 -13 16 0
-4 -6 -13 0
-18 -13 -6 0
